NAME : eil101.tsp
TYPE : TOUR
DIMENSION : 101
TOUR_LENGTH : 665.3578049329708
TOUR_SECTION
1
69
27
101
53
58
40
26
12
80
68
77
3
79
78
34
29
24
54
55
25
39
67
23
75
56
4
21
73
72
74
22
41
15
43
42
57
2
87
13
97
37
98
100
44
14
38
86
16
61
91
85
93
99
96
59
92
95
94
6
89
52
18
83
60
5
84
17
45
8
46
36
49
64
63
90
32
10
62
11
19
47
48
82
7
88
31
70
30
20
66
65
71
35
9
51
81
33
50
76
28
-1
